
Log started (V12.10.0.0) Fri Apr  2 08:55:57 2021

Warning, line 2086: Name 's5' does not exist.

Problem 'asset.lp' read.
Read time = 0.01 sec. (0.18 ticks)
New value for default parallel thread count: 1
New value for time limit in seconds: 300
Version identifier: 12.10.0.0 | 2019-11-26 | 843d4de
CPXPARAM_Threads                                 1
CPXPARAM_TimeLimit                               300
Found incumbent of value 0.000000 after 0.00 sec. (0.05 ticks)
Tried aggregator 3 times.
MIP Presolve eliminated 360 rows and 102 columns.
MIP Presolve modified 1525 coefficients.
Aggregator did 618 substitutions.
Reduced MIP has 758 rows, 961 columns, and 3780 nonzeros.
Reduced MIP has 824 binaries, 103 generals, 0 SOSs, and 0 indicators.
Presolve time = 0.01 sec. (8.55 ticks)
Probing fixed 8 vars, tightened 0 bounds.
Probing time = 0.01 sec. (3.15 ticks)
Cover probing fixed 0 vars, tightened 9 bounds.
Tried aggregator 3 times.
Detecting symmetries...
MIP Presolve eliminated 26 rows and 21 columns.
MIP Presolve modified 407 coefficients.
Aggregator did 4 substitutions.
Reduced MIP has 728 rows, 936 columns, and 3600 nonzeros.
Reduced MIP has 800 binaries, 103 generals, 0 SOSs, and 0 indicators.
Presolve time = 0.01 sec. (7.72 ticks)
Probing time = 0.00 sec. (2.44 ticks)
Clique table members: 2491.
MIP emphasis: balance optimality and feasibility.
MIP search method: dynamic search.
Parallel mode: none, using 1 thread.
Root relaxation solution time = 0.02 sec. (20.63 ticks)

        Nodes                                         Cuts/
   Node  Left     Objective  IInf  Best Integer    Best Bound    ItCnt     Gap

*     0+    0                            0.0000      510.0000              --- 
      0     0      430.3644   198        0.0000      430.3644      663     --- 
      0     0      405.2066   198        0.0000     Cuts: 282      997     --- 
      0     0      399.1868   198        0.0000     Cuts: 244     1254     --- 
      0     0      394.3420   198        0.0000     Cuts: 165     1441     --- 
      0     0      392.3624   198        0.0000     Cuts: 142     1608     --- 
      0     0      391.3034   198        0.0000     Cuts: 127     1729     --- 
Detecting symmetries...
      0     0      390.0920   198        0.0000     Cuts: 151     1900     --- 
      0     0      388.4681   198        0.0000     Cuts: 132     2059     --- 
      0     0      387.6163   198        0.0000     Cuts: 125     2239     --- 
      0     0      386.5023   198        0.0000     Cuts: 139     2319     --- 
*     0+    0                           20.0000      386.5023              --- 
*     0+    0                           60.0000      386.5023           544.17%
      0     0        cutoff             60.0000      386.5023     2319  544.17%
      0     0      385.8431   198       60.0000      Cuts: 78     2414  543.07%
      0     0      385.0640   198       60.0000      Cuts: 86     2511  541.77%
      0     0      384.3934   198       60.0000     Cuts: 111     2625  540.66%
      0     0      384.1504   198       60.0000     Cuts: 135     2742  540.25%
      0     0      384.0639   198       60.0000     Cuts: 115     2857  540.11%
      0     0      383.7767   198       60.0000     Cuts: 164     3065  539.63%
      0     0      383.6236   198       60.0000     Cuts: 150     3254  539.37%
      0     0      383.4646   198       60.0000     Cuts: 132     3344  539.11%
      0     0      383.3813   198       60.0000     Cuts: 129     3454  538.97%
      0     0      383.2821   198       60.0000     Cuts: 131     3573  538.80%
      0     0      383.1742   198       60.0000     Cuts: 131     3700  538.62%
      0     0      382.7302   198       60.0000     Cuts: 130     3854  537.88%
*     0+    0                           75.0000      382.7302           410.31%
      0     0      382.5725   198       75.0000     Cuts: 143     3975  410.10%
      0     0      382.2812   198       75.0000     Cuts: 159     4115  409.71%
      0     0      382.2480   198       75.0000     Cuts: 115     4205  409.66%
      0     0      382.1617   198       75.0000      Cuts: 78     4310  409.55%
Detecting symmetries...
      0     2      382.1617   199       75.0000      382.1617     4310  409.55%
Elapsed time = 0.62 sec. (625.53 ticks, tree = 0.01 MB, solutions = 3)
     87    63      381.7390   190       75.0000      382.1610     9194  409.55%
    157   121      369.7385   165       75.0000      382.1080    14652  409.48%
*   180+  142                          250.0000      382.1080            52.84%
    220   184      347.1493   129      250.0000      382.1080    18634   52.84%
*   300+  260                          260.0000      382.1080            46.96%
*   330   280      integral     0      265.0000      382.1080    20498   44.19%
    360   310      354.4179   149      265.0000      381.7361    23291   44.05%
*   439   354      integral     0      275.0000      381.7361    25345   38.81%
    468   382      290.0000    77      275.0000      381.5911    27723   38.76%
    567   464      365.4578   192      275.0000      380.3225    32677   38.30%
    688   581      362.4753   176      275.0000      380.3108    37639   38.29%
    797   686      351.1589   165      275.0000      380.2978    42821   38.29%
    924   807      361.0040   182      275.0000      380.2481    46913   38.27%

Performing restart 1

Repeating presolve.
Tried aggregator 1 time.
MIP Presolve modified 642 coefficients.
Reduced MIP has 728 rows, 936 columns, and 3152 nonzeros.
Reduced MIP has 800 binaries, 103 generals, 0 SOSs, and 0 indicators.
Presolve time = 0.00 sec. (3.09 ticks)
Tried aggregator 1 time.
Reduced MIP has 728 rows, 936 columns, and 3152 nonzeros.
Reduced MIP has 800 binaries, 103 generals, 0 SOSs, and 0 indicators.
Presolve time = 0.00 sec. (2.40 ticks)
Represolve time = 0.03 sec. (18.43 ticks)
   1007     0      357.8748   216      275.0000     Cuts: 282    52267   30.14%
   1007     0      352.1062   216      275.0000     Cuts: 186    52584   28.04%
   1007     0      346.5289   216      275.0000     Cuts: 158    52852   26.01%
   1007     0      345.3500   216      275.0000     Cuts: 179    53040   25.58%
   1007     0      345.0730   216      275.0000     Cuts: 135    53227   25.48%
   1007     0      344.2846   216      275.0000     Cuts: 129    53411   25.19%
   1007     0      343.6015   216      275.0000      Cuts: 80    53552   24.95%
   1007     0      340.8728   216      275.0000     Cuts: 118    53776   23.95%
   1007     0      340.3220   216      275.0000     Cuts: 133    53908   23.75%
   1007     0      339.4377   216      275.0000     Cuts: 114    54077   23.43%
   1007     0      339.0849   216      275.0000     Cuts: 111    54142   23.30%
   1007     0      338.4081   216      275.0000      Cuts: 61    54266   23.06%
*  1007+    0                          285.0000      338.4081            18.74%
   1007     0        cutoff            285.0000      338.4081    54266   18.74%
   1007     0      337.6958   216      285.0000     Cuts: 102    54436   18.49%
   1007     0      337.5914   216      285.0000     Cuts: 105    54533   18.45%
   1007     0      337.4379   216      285.0000      Cuts: 77    54613   18.40%
   1007     0      337.2961   216      285.0000      Cuts: 64    54690   18.35%
   1007     0      337.1592   216      285.0000      Cuts: 54    54827   18.30%
   1007     0      337.0276   216      285.0000     Cuts: 104    54936   18.26%
   1007     0      336.9276   216      285.0000      Cuts: 84    55059   18.22%
   1007     0      336.4923   216      285.0000      Cuts: 72    55321   18.07%
   1007     0      335.8864   216      285.0000      Cuts: 87    55484   17.85%
   1007     0      335.8065   216      285.0000     Cuts: 104    55580   17.83%
   1007     0      335.3969   216      285.0000      Cuts: 56    55738   17.68%
   1007     0      335.1096   216      285.0000      Cuts: 84    55847   17.58%
   1007     0      334.8780   216      285.0000     Cuts: 101    55951   17.50%
   1007     0      334.5609   216      285.0000      Cuts: 85    56080   17.39%
   1007     0      334.3082   216      285.0000     Cuts: 107    56209   17.30%
   1007     0      333.8175   216      285.0000      Cuts: 96    56387   17.13%
   1007     0      333.7874   216      285.0000      Cuts: 72    56478   17.12%
   1007     0      333.7450   216      285.0000      Cuts: 80    56584   17.10%
   1007     0      333.6090   216      285.0000      Cuts: 82    56737   17.06%
   1007     0      333.5219   216      285.0000      Cuts: 78    56866   17.03%
   1007     0      333.4671   216      285.0000     Cuts: 107    57040   17.01%
   1007     0      333.3873   216      285.0000      Cuts: 93    57186   16.98%
   1007     2      333.3873   194      285.0000      333.3870    57186   16.98%
Elapsed time = 5.57 sec. (6206.25 ticks, tree = 0.01 MB, solutions = 8)
   1046    41      322.4319    81      285.0000      333.1553    60090   16.90%
   1256   215      307.0338    80      285.0000      330.3669    71128   15.92%
   1528   446      328.2624   176      285.0000      329.1735    83950   15.50%
*  1737+  592                          290.0000      328.6478            13.33%
*  1747+  336                          305.0000      328.6478             7.75%
   1752   341      319.7367   150      305.0000      328.6375    95079    7.75%
   1870   417      314.1971   108      305.0000      327.9099   106052    7.51%
   1973   480      321.5594   142      305.0000      327.2277   116471    7.29%
   2113   562      321.1364    86      305.0000      326.5856   127905    7.08%
   2269   647      321.0718   149      305.0000      325.8948   136412    6.85%
   2404   723      313.5028   127      305.0000      324.9219   146647    6.53%
   2513   764      319.0962   128      305.0000      324.3750   158353    6.35%
Elapsed time = 13.06 sec. (15819.27 ticks, tree = 1.28 MB, solutions = 10)
   2662   822      314.6137   146      305.0000      323.7500   167363    6.15%
   2767   875      316.6117   111      305.0000      323.3730   178913    6.02%
   2869   909      311.2500   102      305.0000      323.0000   189750    5.90%
   3008   964      319.6479   146      305.0000      322.5494   201196    5.75%
   3154  1037      313.5107   116      305.0000      322.1053   212334    5.61%
   3296  1092      314.5277   146      305.0000      321.7213   220340    5.48%
   3459  1162      318.1548   129      305.0000      321.4943   228274    5.41%
*  3621   723      integral     0      310.0000      321.1309   236147    3.59%
   3636   723      318.3263   107      310.0000      321.0714   237544    3.57%
   3773   690        cutoff            310.0000      320.4207   245513    3.36%
   3884   650      315.0000    83      310.0000      319.9170   254560    3.20%
Elapsed time = 20.85 sec. (25449.96 ticks, tree = 2.00 MB, solutions = 11)
   4015   593      315.4779   121      310.0000      319.1419   262187    2.95%
   4175   510        cutoff            310.0000      318.4146   271968    2.71%
   4345   398      316.1791   164      310.0000      317.5762   283248    2.44%
   4547   258        cutoff            310.0000      316.7769   294446    2.19%

GUB cover cuts applied:  26
Clique cuts applied:  133
Cover cuts applied:  23
Implied bound cuts applied:  84
Flow cuts applied:  17
Mixed integer rounding cuts applied:  144
Zero-half cuts applied:  93
Lift and project cuts applied:  20
Gomory fractional cuts applied:  7

Root node processing (before b&c):
  Real time             =    0.61 sec. (623.40 ticks)
Sequential b&c:
  Real time             =   23.97 sec. (29354.85 ticks)
                          ------------
Total (root+branch&cut) =   24.58 sec. (29978.26 ticks)

Solution pool: 12 solutions saved.

MIP - Integer optimal solution:  Objective =  3.1000000000e+02
Solution time =   24.58 sec.  Iterations = 302579  Nodes = 4846
Deterministic time = 29978.26 ticks  (1219.67 ticks/sec)


Incumbent solution
Variable Name           Solution Value
F                           310.000000
y250                          1.000000
y24                           1.000000
y220                          1.000000
y179                          1.000000
y125                          1.000000
y12                           1.000000
y52                           1.000000
y293                          1.000000
y285                          1.000000
y126                          1.000000
y84                           1.000000
y68                           1.000000
y227                          1.000000
y221                          1.000000
y123                          1.000000
y196                          1.000000
y304                          1.000000
y232                          1.000000
y295                          1.000000
y28                           1.000000
x51x293x1                     1.000000
x51x68x1                      1.000000
x281x232x1                    2.000000
x187x227x1                    1.000000
x122x12x1                     1.000000
x95x24x1                      1.000000
x150x24x1                     1.000000
x158x293x2                    1.000000
x306x196x2                    1.000000
x306x295x2                    1.000000
x150x250x2                    1.000000
x267x220x2                    2.000000
x113x12x2                     1.000000
x113x221x2                    1.000000
x30x221x2                     1.000000
x214x126x3                    1.000000
x214x123x3                    1.000000
x158x285x3                    1.000000
x301x52x3                     1.000000
x187x84x3                     1.000000
x122x125x3                    1.000000
x95x250x3                     1.000000
x30x125x3                     1.000000
x250x52x2                     1.000000
x250x285x3                    1.000000
x24x179x1                     2.000000
x220x126x2                    1.000000
x220x84x2                     1.000000
x179x196x1                    1.000000
x179x304x1                    1.000000
x125x123x3                    1.000000
x125x304x3                    1.000000
x12x68x1                      1.000000
x12x227x2                     1.000000
x52x295x2                     1.000000
x52x0x3                       1.000000
x293x0x1                      1.000000
x293x0x2                      1.000000
x285x0x3                      2.000000
x126x0x2                      1.000000
x126x0x3                      1.000000
x84x0x2                       1.000000
x84x0x3                       1.000000
x68x0x1                       2.000000
x227x0x1                      1.000000
x227x0x2                      1.000000
x221x28x2                     2.000000
x123x0x3                      2.000000
x196x0x1                      1.000000
x196x0x2                      1.000000
x304x0x1                      1.000000
x304x0x3                      1.000000
x232x0x1                      2.000000
x295x0x2                      2.000000
x28x0x2                       2.000000
s214                          7.065000
s52                           8.303938
s66                           7.390000
s245                          8.470000
s137                          7.540000
s71                           7.710000
s188                          8.770000
z214z188z3                    1.000000
s285                          8.780000
z214z285z3                    1.000000
s126                          8.830000
z214z126z3                    1.000000
s135                          7.880812
s84                           8.950000
s123                          9.400000
z214z123z3                    1.000000
s304                          9.420000
s158                          7.069505
s125                          7.479201
s293                          8.520000
z158z293z2                    1.000000
s11                           7.570000
s173                          7.902864
z158z285z3                    1.000000
s20                           8.800000
s227                          9.029744
s221                          8.254297
z158z123z3                    1.000000
s196                          9.410000
s153                          9.460000
s295                          9.460000
z158z295z2                    1.000000
s28                           9.490000
z158z28z2                     1.000000
s51                           7.248864
z51z293z1                     1.000000
s199                          8.620000
s195                          8.635314
z51z195z1                     1.000000
s35                           8.890000
z51z35z1                      1.000000
s105                          8.910000
z51z105z1                     1.000000
s68                           9.000000
z51z68z1                      1.000000
s232                          9.460000
z51z232z1                     1.000000
s301                          6.888418
s230                          7.140000
s250                          7.226098
z301z52z3                     1.000000
z301z123z3                    1.000000
s281                          7.606667
z281z232z1                    1.000000
s187                          7.674975
z187z84z3                     1.000000
z187z227z1                    1.000000
z187z123z3                    1.000000
z187z232z1                    1.000000
s306                          7.972746
z306z196z2                    1.000000
z306z295z2                    1.000000
z306z28z2                     1.000000
s122                          5.971070
s119                          7.637287
s134                          7.150000
s24                           7.210000
s179                          8.267327
s115                          7.290000
z122z125z3                    1.000000
s12                           7.779463
z122z12z1                     1.000000
s133                          7.380000
s233                          7.440000
s272                          7.440000
s265                          7.480000
s280                          7.520000
z122z199z1                    1.000000
z122z285z3                    1.000000
z122z135z3                    1.000000
z122z35z1                     1.000000
z122z105z1                    1.000000
z122z68z1                     1.000000
z122z123z3                    1.000000
z122z232z1                    1.000000
s95                           5.736360
z95z250z3                     1.000000
z95z24z1                      1.000000
z95z179z1                     1.000000
z95z115z1                     1.000000
z95z125z3                     1.000000
z95z199z1                     1.000000
z95z188z3                     1.000000
z95z195z1                     1.000000
z95z285z3                     1.000000
z95z135z3                     1.000000
z95z35z1                      1.000000
z95z105z1                     1.000000
z95z68z1                      1.000000
z95z123z3                     1.000000
z95z232z1                     1.000000
s150                          5.730000
z150z250z2                    1.000000
z150z24z1                     1.000000
s220                          7.374144
z150z179z1                    1.000000
z150z115z1                    1.000000
s168                          7.657254
z150z168z2                    1.000000
z150z133z1                    1.000000
z150z199z1                    1.000000
s79                           7.660000
z150z79z2                     1.000000
z150z173z2                    1.000000
z150z195z1                    1.000000
z150z20z2                     1.000000
z150z35z1                     1.000000
z150z105z1                    1.000000
z150z68z1                     1.000000
z150z221z2                    1.000000
z150z232z1                    1.000000
z150z295z2                    1.000000
z150z28z2                     1.000000
s267                          5.750000
z267z220z2                    1.000000
z267z79z2                     1.000000
z267z173z2                    1.000000
z267z20z2                     1.000000
z267z221z2                    1.000000
z267z295z2                    1.000000
z267z28z2                     1.000000
s113                          5.996820
z113z168z2                    1.000000
z113z12z2                     1.000000
z113z20z2                     1.000000
z113z221z2                    1.000000
z113z295z2                    1.000000
z113z28z2                     1.000000
s30                           5.986960
z30z125z3                     1.000000
z30z20z2                      1.000000
z30z135z3                     1.000000
z30z221z2                     1.000000
z30z123z3                     1.000000
z30z295z2                     1.000000
z30z28z2                      1.000000
z119z232z1                    1.000000
z119z295z2                    1.000000
z119z28z2                     1.000000
z230z123z3                    1.000000
z230z232z1                    1.000000
z134z35z1                     1.000000
z134z105z1                    1.000000
z134z232z1                    1.000000
z250z52z2                     1.000000
z250z285z3                    1.000000
z250z123z3                    1.000000
z250z295z2                    1.000000
z250z28z2                     1.000000
z24z179z1                     1.000000
z24z199z1                     1.000000
z24z232z1                     1.000000
z220z126z2                    1.000000
z220z84z2                     1.000000
z220z295z2                    1.000000
z220z28z2                     1.000000
z179z196z1                    1.000000
z179z304z1                    1.000000
z179z232z1                    1.000000
z115z232z1                    1.000000
z125z123z3                    1.000000
z125z304z3                    1.000000
z168z295z2                    1.000000
z168z28z2                     1.000000
z12z68z1                      1.000000
z12z227z2                     1.000000
z52z295z2                     1.000000
z133z68z1                     1.000000
z133z232z1                    1.000000
z173z295z2                    1.000000
z135z123z3                    1.000000
z221z28z2                     1.000000
All other variables in the range 1-1688 are 0.
